0
111
466
42
86
66
90
88
197
88
32
177
73
89
132
136
47
60
236
37
77
120
88
28
976
23
146
142
222
56
31
342
38
56
356
52
135
0
47
46
77
42
43
73
36
67
65
0
351
126
34
98
80
123
64
31
0
49
32
38
162
273
75
108
34
0
160
37
53
47
59
143
99
41
100
25
61
384
86
177
85
34
35
84
29
43
25
76
0
104
273
160
41
247
182
40
67
89
60
52
